WARNING: for repeatability, setting FPU to use double precision
============================[ Problem Statistics ]=============================
|                                                                             |
|  Number of variables:           100                                         |
|  Number of clauses:             449                                         |
|  Parse time:                   0.00 s                                       |
|  Eliminated clauses:           0.00 Mb                                      |
|  Simplification time:          0.00 s                                       |
|                                                                             |
============================[ Search Statistics ]==============================
| Conflicts |          ORIGINAL         |          LEARNT          | Progress |
|           |    Vars  Clauses Literals |    Limit  Clauses Lit/Cl |          |
===============================================================================
|       100 |      96      445     1361 |      163      100      7 |  0.010 % |
===============================================================================
restarts              : 2
conflicts             : 199            (inf /sec)
decisions             : 260            (0.00 % random) (inf /sec)
propagations          : 4633           (inf /sec)
conflict literals     : 1161           (19.49 % deleted)
Memory used           : 13.00 MB
CPU time              : 0 s

SATISFIABLE
